/*********************************************
 * OPL 12.6.0.0 Data
 * Author: Adrian Rodriguez Bazaga, Pau Rodriguez Esmerats
 * Creation Date: 21/11/2017 at 23:07:30
 *********************************************/

nNurses=199;
maxConsec=2;
maxPresence=7;
maxHours=5;
minHours=1;
demand= [50 54 59 73 54 59 73 57 46 26 4 9 5 14 12 11 9 11 8 5 33 61 35 42  ];
